(set-info :source |
 Generated by Alive 0.1
 More info in N. P. Lopes, D. Menendez, S. Nagarakatte, J. Regehr.
 Provably Correct Peephole Optimizations with Alive. In PLDI'15.
|)

(set-info :status unknown)
(declare-fun %B () (_ BitVec 35))
(declare-fun %A () (_ BitVec 35))
(assert
 (and (distinct (bvor %A (bvxor (bvxor %A (_ bv34359738367 35)) %B)) (bvor %A (bvxor %B (_ bv34359738367 35)))) true))
(check-sat)
